p edge 43 459
e 1 4
e 1 9
e 1 14
e 1 16
e 1 22
e 1 23
e 1 24
e 1 30
e 1 31
e 1 33
e 1 34
e 1 35
e 1 41
e 1 42
e 2 3
e 2 4
e 2 5
e 2 6
e 2 7
e 2 9
e 2 12
e 2 14
e 2 17
e 2 18
e 2 21
e 2 25
e 2 30
e 2 31
e 2 32
e 2 35
e 2 36
e 2 37
e 2 38
e 2 41
e 3 6
e 3 7
e 3 9
e 3 10
e 3 11
e 3 17
e 3 19
e 3 21
e 3 24
e 3 25
e 3 26
e 3 28
e 3 29
e 3 30
e 3 31
e 3 35
e 3 38
e 3 41
e 3 42
e 3 43
e 4 6
e 4 9
e 4 10
e 4 15
e 4 16
e 4 17
e 4 18
e 4 19
e 4 21
e 4 22
e 4 29
e 4 32
e 4 33
e 4 34
e 4 38
e 4 39
e 4 40
e 4 41
e 5 6
e 5 10
e 5 12
e 5 14
e 5 15
e 5 16
e 5 18
e 5 21
e 5 23
e 5 26
e 5 28
e 5 31
e 5 32
e 5 33
e 5 34
e 5 35
e 5 38
e 5 40
e 5 42
e 5 43
e 6 9
e 6 10
e 6 12
e 6 13
e 6 22
e 6 23
e 6 25
e 6 26
e 6 28
e 6 29
e 6 31
e 6 32
e 6 36
e 6 37
e 6 38
e 6 43
e 7 11
e 7 13
e 7 15
e 7 18
e 7 19
e 7 21
e 7 22
e 7 25
e 7 26
e 7 27
e 7 29
e 7 30
e 7 33
e 7 34
e 7 35
e 7 37
e 7 41
e 7 42
e 7 43
e 8 9
e 8 11
e 8 15
e 8 17
e 8 19
e 8 23
e 8 25
e 8 26
e 8 27
e 8 29
e 8 30
e 8 31
e 8 32
e 8 33
e 8 35
e 8 36
e 8 39
e 8 41
e 8 42
e 8 43
e 9 12
e 9 16
e 9 20
e 9 22
e 9 27
e 9 28
e 9 29
e 9 30
e 9 31
e 9 32
e 9 38
e 9 41
e 9 42
e 10 15
e 10 17
e 10 21
e 10 22
e 10 24
e 10 27
e 10 31
e 10 32
e 10 33
e 10 34
e 10 35
e 10 37
e 10 39
e 10 40
e 10 41
e 10 42
e 10 43
e 11 13
e 11 17
e 11 18
e 11 20
e 11 24
e 11 25
e 11 26
e 11 28
e 11 29
e 11 31
e 11 33
e 11 35
e 11 36
e 11 37
e 11 39
e 11 40
e 11 41
e 11 42
e 11 43
e 12 13
e 12 15
e 12 16
e 12 18
e 12 19
e 12 20
e 12 23
e 12 24
e 12 28
e 12 31
e 12 32
e 12 33
e 12 34
e 12 36
e 12 37
e 12 41
e 12 43
e 13 14
e 13 16
e 13 19
e 13 20
e 13 22
e 13 25
e 13 27
e 13 28
e 13 29
e 13 31
e 13 32
e 13 33
e 13 38
e 13 39
e 14 16
e 14 17
e 14 19
e 14 20
e 14 22
e 14 23
e 14 24
e 14 25
e 14 26
e 14 29
e 14 34
e 14 35
e 14 36
e 14 37
e 14 39
e 14 40
e 14 41
e 14 43
e 15 19
e 15 20
e 15 21
e 15 23
e 15 24
e 15 27
e 15 28
e 15 30
e 15 31
e 15 32
e 15 33
e 15 34
e 15 40
e 15 41
e 15 42
e 16 21
e 16 22
e 16 23
e 16 24
e 16 27
e 16 31
e 16 32
e 16 33
e 16 34
e 16 36
e 16 37
e 16 38
e 16 39
e 16 40
e 16 42
e 16 43
e 17 18
e 17 20
e 17 23
e 17 25
e 17 26
e 17 27
e 17 28
e 17 29
e 17 30
e 17 31
e 17 32
e 17 33
e 17 36
e 17 37
e 17 41
e 17 42
e 18 21
e 18 24
e 18 26
e 18 27
e 18 28
e 18 29
e 18 30
e 18 31
e 18 34
e 18 37
e 18 39
e 18 41
e 18 43
e 19 21
e 19 23
e 19 26
e 19 27
e 19 28
e 19 29
e 19 31
e 19 32
e 19 33
e 19 34
e 19 36
e 19 37
e 19 39
e 19 40
e 19 42
e 19 43
e 20 22
e 20 23
e 20 25
e 20 27
e 20 34
e 20 40
e 21 23
e 21 25
e 21 29
e 21 32
e 21 33
e 21 37
e 21 38
e 22 23
e 22 24
e 22 27
e 22 30
e 22 33
e 22 34
e 22 35
e 22 38
e 22 40
e 23 27
e 23 29
e 23 30
e 23 31
e 23 32
e 23 33
e 23 34
e 23 36
e 23 37
e 23 38
e 23 42
e 24 26
e 24 27
e 24 28
e 24 31
e 24 34
e 24 35
e 24 37
e 24 38
e 24 39
e 24 40
e 24 41
e 24 42
e 25 27
e 25 28
e 25 29
e 25 30
e 25 31
e 25 32
e 25 33
e 25 35
e 25 36
e 25 40
e 25 42
e 25 43
e 26 28
e 26 29
e 26 30
e 26 31
e 26 32
e 26 33
e 26 34
e 26 36
e 26 37
e 26 38
e 27 28
e 27 31
e 27 32
e 27 33
e 27 34
e 27 35
e 27 36
e 27 37
e 27 39
e 27 40
e 27 41
e 28 29
e 28 33
e 28 34
e 28 37
e 28 39
e 28 41
e 28 43
e 29 30
e 29 32
e 29 35
e 29 38
e 29 39
e 29 40
e 29 43
e 30 32
e 30 34
e 30 35
e 30 36
e 30 40
e 30 41
e 30 42
e 30 43
e 31 32
e 31 35
e 31 39
e 31 41
e 32 36
e 32 37
e 32 38
e 32 39
e 32 40
e 32 42
e 33 35
e 33 36
e 33 37
e 33 38
e 33 39
e 33 42
e 34 35
e 34 36
e 34 37
e 34 39
e 34 41
e 34 42
e 35 36
e 35 37
e 35 40
e 36 37
e 36 38
e 36 39
e 36 41
e 36 43
e 37 40
e 38 39
e 38 40
e 38 41
e 40 41
e 41 42
e 41 43
e 42 43
